&control
prefix = 'GaAs'
calculation = 'scf'
pseudo_dir = '../PP_DIR'
wf_collect = .TRUE.
/
&system
ibrav = 0
nat = 2
ntyp = 2
nbnd = 20
ecutwfc = 50.0
/
&electrons
diagonalization = 'david'
conv_thr = 1.0d-10
/
ATOMIC_SPECIES
Ga  69.723     Ga.pz-dn-rrkjus_psl.0.2.UPF
As  74.922     As.pz-n-rrkjus_psl.0.2.UPF
CELL_PARAMETERS angstrom
3.967509313	0.000000000	0.000000000
1.983754657	3.435963855	0.000000000
1.983754657	1.145321285	3.239457789
ATOMIC_POSITIONS crystal
Ga      0.000000000   0.000000000   0.000000000
As      0.750000000   0.750000000   0.750000000
K_POINTS automatic
4 4 4 0 0 0
